50 8
212 493
878 604
531 746
551 702
649 365
543 760
863 169
793 295
623 166
245 167
480 703
516 750
529 428
906 423
464 627
156 164
833 335
812 272
935 523
679 431
572 357
448 738
424 778
528 618
530 859
716 762
502 313
427 133
537 393
885 503
729 482
490 764
514 137
199 66
736 246
750 256
593 425
898 260
621 542
565 897
267 198
554 126
67 119
682 217
890 131
526 647
855 284
742 306
619 105
710 652
